; Use semi columns for comments
(set-option :produce-models true)

(declare-const xa Real)
(declare-const ya Real)
(declare-const xb Real)
(declare-const yb Real)

(declare-const x Real)
(declare-const m Real)
(declare-const q Real)

; Interpreted function
(define-fun f ((x Real)) Real (TODO))
